lattice_vector 6.000000000000000 0.000000000000000 0.000000000000000
lattice_vector 0.000000000000000 6.000000000000000 0.000000000000000
lattice_vector 3.000000000000000 3.000000000000000 3.750000000000000
atom_frac 0.750000000000000 0.750000000000000 0.500000000000000 Pb
atom_frac 0.250000000000000 0.250000000000000 0.500000000000000 Pb
atom_frac 0.122000000000000 0.622000000000000 0.000000000000000 S
atom_frac 0.878000000000000 0.378000000000000 0.000000000000000 S
atom_frac 0.622000000000000 0.878000000000000 0.000000000000000 S
atom_frac 0.378000000000000 0.122000000000000 0.000000000000000 S
